certificates/rado_a14_c116_N41.drat
-37 6 -41 0
13 6 -40 -41 0
-10 -13 6 -39 -40 0
10 6 0
d 10 30 6 0
-13 6 -40 -39 0
d -10 -13 6 -39 -40 0
6 -39 -40 -41 0
-39 -40 -41 0
d 6 -39 -40 -41 0
-6 39 -40 0
-40 -41 0
d -39 -40 -41 0
6 -41 0
d 13 6 -40 -41 0
d -37 6 -41 0
-41 0
8 40 -6 0
-8 -6 0
-6 0
38 0
9 0
10 0
-19 0
-28 0
-33 0
-20 0
-34 0
-14 0
1 0
2 0
-25 0
-11 0
-26 0
-12 0
7 0
3 0
8 0
-31 0
0
